
Log started (V12.10.0.0) Mon Apr  5 17:16:03 2021


Problem 'asset.lp' read.
Read time = 0.01 sec. (0.44 ticks)
New value for default parallel thread count: 1
New value for time limit in seconds: 150
Version identifier: 12.10.0.0 | 2019-11-26 | 843d4de
CPXPARAM_Threads                                 1
CPXPARAM_TimeLimit                               150
Found incumbent of value 0.000000 after 0.00 sec. (0.12 ticks)
Tried aggregator 3 times.
MIP Presolve eliminated 790 rows and 206 columns.
MIP Presolve modified 3276 coefficients.
Aggregator did 1518 substitutions.
Reduced MIP has 1649 rows, 2160 columns, and 9484 nonzeros.
Reduced MIP has 1902 binaries, 206 generals, 0 SOSs, and 0 indicators.
Presolve time = 0.02 sec. (17.21 ticks)
Probing fixed 116 vars, tightened 5 bounds.
Probing time = 0.01 sec. (8.54 ticks)
Cover probing fixed 0 vars, tightened 46 bounds.
Tried aggregator 1 time.
Detecting symmetries...
MIP Presolve eliminated 133 rows and 133 columns.
MIP Presolve modified 394 coefficients.
Reduced MIP has 1516 rows, 2027 columns, and 8518 nonzeros.
Reduced MIP has 1774 binaries, 201 generals, 0 SOSs, and 0 indicators.
Presolve time = 0.01 sec. (8.08 ticks)
Probing time = 0.00 sec. (2.84 ticks)
Cover probing fixed 0 vars, tightened 3 bounds.
Clique table members: 5532.
Tightened 3 constraints.
MIP emphasis: balance optimality and feasibility.
MIP search method: dynamic search.
Parallel mode: none, using 1 thread.
Root relaxation solution time = 0.03 sec. (40.78 ticks)

        Nodes                                         Cuts/
   Node  Left     Objective  IInf  Best Integer    Best Bound    ItCnt     Gap

*     0+    0                            0.0000      284.0000              --- 
      0     0      279.8954   303        0.0000      279.8954      821     --- 
      0     0      267.5684   303        0.0000     Cuts: 479     2474     --- 
      0     0      265.1627   303        0.0000     Cuts: 479     3377     --- 
      0     0      264.0000   303        0.0000     Cuts: 479     4631     --- 
*     0+    0                           28.0000      264.0000           842.86%
      0     0        cutoff             28.0000      264.0000     4631  842.86%
      0     0      264.0000   303       28.0000     Cuts: 479     5708  842.86%
      0     0      263.8333   303       28.0000     Cuts: 479     6378  842.26%
Detecting symmetries...
      0     0      263.6667   303       28.0000     Cuts: 395     7279  841.67%
      0     0      263.6667   303       28.0000     Cuts: 479     7897  841.67%
      0     0      263.6667   303       28.0000     Cuts: 153     8420  841.67%
      0     0      263.6667   303       28.0000     Cuts: 423     9177  841.67%
Detecting symmetries...
      0     2      263.6667   267       28.0000      263.6667     9177  841.67%
Elapsed time = 1.50 sec. (2039.07 ticks, tree = 0.01 MB, solutions = 1)
      8    10      261.6667   231       28.0000      263.6667    12056  841.67%
     25    27      251.5000   256       28.0000      263.6667    14283  841.67%
     41    43      255.2443   222       28.0000      263.6667    15408  841.67%
     61    63      232.7443   195       28.0000      263.6667    17890  841.67%
    179   143      180.0000    63       28.0000      263.6667    20084  841.67%
    218   176      261.7500   202       28.0000      263.6667    22155  841.67%
    241   199      260.4110   231       28.0000      263.6667    24464  841.67%
    272   226      250.3333   185       28.0000      263.6667    27073  841.67%
    293   247      235.1747   173       28.0000      263.6667    29606  841.67%
    402   343      263.3333   277       28.0000      263.6667    36442  841.67%
Elapsed time = 3.77 sec. (5272.08 ticks, tree = 3.91 MB, solutions = 1)
*   532+  471                           38.0000      263.6667           593.86%
*   532+  471                           46.0000      263.6667           473.19%
*   533+  472                          124.0000      263.6667           112.63%
*   533+  472                          130.0000      263.6667           102.82%
*   533+  472                          136.0000      263.6667            93.87%
    533   474      263.3826   269      136.0000      263.6667    44725   93.87%
*   534+  473                          146.0000      263.6667            80.59%
    534   475      263.6667   318      146.0000      263.6667    45254   80.59%

Performing restart 1

Repeating presolve.
Tried aggregator 1 time.
MIP Presolve modified 2310 coefficients.
Reduced MIP has 1516 rows, 2027 columns, and 7214 nonzeros.
Reduced MIP has 1774 binaries, 201 generals, 0 SOSs, and 0 indicators.
Presolve time = 0.01 sec. (6.37 ticks)
Tried aggregator 1 time.
Reduced MIP has 1516 rows, 2027 columns, and 7214 nonzeros.
Reduced MIP has 1774 binaries, 201 generals, 0 SOSs, and 0 indicators.
Presolve time = 0.00 sec. (5.10 ticks)
Represolve time = 0.04 sec. (33.10 ticks)
    644     0      256.5059   402      146.0000     Cuts: 479    66525   75.69%
    644     0      254.4495   402      146.0000     Cuts: 402    69779   74.28%
    644     0      253.7126   402      146.0000     Cuts: 372    71711   73.78%
    644     0      252.3403   402      146.0000     Cuts: 307    77308   72.84%
    644     0      251.9922   402      146.0000     Cuts: 420    79236   72.60%
    644     0      251.4858   402      146.0000     Cuts: 336    83280   72.25%
    644     0      251.2300   402      146.0000     Cuts: 411    84653   72.08%
    644     0      251.1855   402      146.0000     Cuts: 272    94192   72.04%
    644     0      251.0845   402      146.0000     Cuts: 280    98727   71.98%
    644     0      251.0369   402      146.0000     Cuts: 288   100677   71.94%
    644     0      251.0000   402      146.0000     Cuts: 210   101403   71.92%
    644     0      250.8649   402      146.0000     Cuts: 192   102197   71.83%
    644     0      250.8583   402      146.0000     Cuts: 207   102771   71.82%
    644     0      250.7453   402      146.0000      Cuts: 75   106421   71.74%
    644     0      250.7306   402      146.0000     Cuts: 276   107197   71.73%
    644     0      250.6396   402      146.0000     Cuts: 219   110001   71.67%
    644     0      250.6176   402      146.0000     Cuts: 283   110599   71.66%
    644     0      250.5855   402      146.0000     Cuts: 139   112969   71.63%
    644     0      250.5332   402      146.0000     Cuts: 202   114805   71.60%
    644     0      250.3750   402      146.0000     Cuts: 163   115825   71.49%
    644     0      250.3360   402      146.0000     Cuts: 225   117732   71.46%
    644     0      250.3172   402      146.0000     Cuts: 200   118631   71.45%
    644     0      250.2984   402      146.0000     Cuts: 126   119301   71.44%
    644     0      250.2578   402      146.0000     Cuts: 119   119972   71.41%
    644     0      250.2396   402      146.0000     Cuts: 133   120468   71.40%
*   644+    0                          156.0000      250.2396            60.41%
    644     2      250.2396   430      156.0000      250.2377   120468   60.41%
    646     4      250.1473   397      156.0000      250.1469   122142   60.35%
    648     6      250.0618   372      156.0000      250.0896   123249   60.31%
    650     8      249.3204   353      156.0000      250.0896   129551   60.31%
    652    10      244.9322   351      156.0000      250.0896   137285   60.31%
    654    12      244.5444   343      156.0000      250.0896   140824   60.31%
    657    15      247.6459   357      156.0000      250.0896   143203   60.31%
    660    18      246.9292   330      156.0000      250.0896   148574   60.31%
Elapsed time = 36.03 sec. (48341.40 ticks, tree = 0.04 MB, solutions = 8)
    662    20      241.1887   317      156.0000      250.0896   155461   60.31%
    666    24      242.0256   339      156.0000      250.0896   159204   60.31%
    669    27      241.5627   337      156.0000      250.0896   168318   60.31%
    674    32      234.6546   275      156.0000      250.0896   174527   60.31%
    679    37      239.9875   319      156.0000      250.0896   180841   60.31%
    684    42      241.3850   318      156.0000      250.0896   187184   60.31%
    690    48      239.7392   322      156.0000      250.0896   193223   60.31%
    696    54      239.7714   314      156.0000      250.0896   199894   60.31%
    708    66      236.7072   303      156.0000      250.0896   206254   60.31%
    721    79      237.8339   273      156.0000      250.0896   214324   60.31%
Elapsed time = 44.17 sec. (59517.25 ticks, tree = 0.12 MB, solutions = 8)
    734    92      235.3567   252      156.0000      250.0896   221385   60.31%
    764   122      233.1936   282      156.0000      250.0896   229086   60.31%
    794   146      223.7241   233      156.0000      250.0896   238766   60.31%
    828   175      248.1514   366      156.0000      250.0488   249899   60.29%
    833   180      238.6258   319      156.0000      250.0488   258495   60.29%
    841   188      243.7644   329      156.0000      250.0488   266587   60.29%
    852   199      241.9532   315      156.0000      250.0488   277085   60.29%
    863   210      240.4198   309      156.0000      250.0488   287463   60.29%
    874   221      235.3067   287      156.0000      250.0488   296490   60.29%
    884   231      235.4676   282      156.0000      250.0488   307778   60.29%
Elapsed time = 52.22 sec. (70405.10 ticks, tree = 0.29 MB, solutions = 8)
    905   252      232.2186   261      156.0000      250.0488   318521   60.29%
    929   276      226.5987   224      156.0000      250.0488   328801   60.29%
    950   296      217.2742   206      156.0000      250.0488   338701   60.29%
    960   302      243.0264   354      156.0000      249.8183   347414   60.14%
    970   312      241.3923   341      156.0000      249.8183   354084   60.14%
    981   323      235.2227   283      156.0000      249.8183   362479   60.14%
   1003   345      229.9463   255      156.0000      249.8183   373974   60.14%
   1033   375      207.1668   192      156.0000      249.8183   384637   60.14%
   1048   386      247.3140   349      156.0000      249.7930   391936   60.12%
   1058   396      245.1188   357      156.0000      249.7930   399771   60.12%
Elapsed time = 59.73 sec. (80450.70 ticks, tree = 0.48 MB, solutions = 8)
   1066   404      226.8552   248      156.0000      249.7930   407868   60.12%
   1093   431      213.1814   198      156.0000      249.7930   419414   60.12%
   1118   448      246.5980   370      156.0000      249.6546   428487   60.04%
   1127   457      232.2206   287      156.0000      249.6546   439441   60.04%
   1159   489      215.4317   239      156.0000      249.6546   452666   60.04%
   1178   500      246.1422   349      156.0000      249.4762   463600   59.92%
   1182   504      238.4574   297      156.0000      249.4762   473488   59.92%
   1186   508      232.1061   278      156.0000      249.4762   484328   59.92%
   1192   514      229.8452   287      156.0000      249.4762   490537   59.92%
   1201   523      231.2174   282      156.0000      249.4762   498476   59.92%
Elapsed time = 67.84 sec. (91733.47 ticks, tree = 0.64 MB, solutions = 8)
   1205   527      229.8605   278      156.0000      249.4762   503601   59.92%
   1211   533      229.2829   290      156.0000      249.4762   509232   59.92%
   1223   545      226.8313   277      156.0000      249.4762   519028   59.92%
   1234   556      226.5284   264      156.0000      249.4762   528581   59.92%
   1263   585      221.6997   240      156.0000      249.4762   540066   59.92%
   1290   612      221.5863   259      156.0000      249.4762   549942   59.92%
   1330   652      215.2016   186      156.0000      249.4762   561475   59.92%
   1380   697      247.8681   386      156.0000      249.1680   573991   59.72%
   1386   703      245.2497   377      156.0000      249.1680   581135   59.72%
   1391   708      230.1349   326      156.0000      249.1680   589466   59.72%
Elapsed time = 75.52 sec. (102297.67 ticks, tree = 0.87 MB, solutions = 8)
   1406   723      220.2303   241      156.0000      249.1680   600150   59.72%
   1441   758      207.3163   194      156.0000      249.1680   614063   59.72%
   1484   787      247.7646   376      156.0000      248.1530   625733   59.07%
   1494   797      241.6488   329      156.0000      248.1530   636589   59.07%
   1506   809      219.5726   292      156.0000      248.1530   645724   59.07%
   1531   834      206.9393   224      156.0000      248.1530   659548   59.07%
   1571   866      245.0541   379      156.0000      247.9478   676658   58.94%
   1581   876      238.3591   355      156.0000      247.9478   686324   58.94%
   1592   887      234.4129   295      156.0000      247.9478   694630   58.94%
   1604   899      229.1451   317      156.0000      247.9478   702425   58.94%
Elapsed time = 83.75 sec. (113606.64 ticks, tree = 1.09 MB, solutions = 8)
   1621   912      245.1696   363      156.0000      247.9112   715559   58.92%
   1634   925      220.5708   297      156.0000      247.9112   721562   58.92%
   1682   961      243.3389   348      156.0000      247.8653   735828   58.89%
   1684   963      241.8058   363      156.0000      247.8653   739573   58.89%
   1689   968      240.6137   364      156.0000      247.8653   745994   58.89%
   1697   976      239.9234   312      156.0000      247.8653   753677   58.89%
   1707   986      235.4128   333      156.0000      247.8653   764128   58.89%
   1713   992      234.5178   296      156.0000      247.8653   770250   58.89%
   1729  1008      229.6974   277      156.0000      247.8653   780393   58.89%
   1743  1022      231.2093   274      156.0000      247.8653   790009   58.89%
Elapsed time = 92.20 sec. (125458.50 ticks, tree = 1.26 MB, solutions = 8)
*  1744+ 1021                          162.0000      247.8653            53.00%
   1744  1023      230.6527   276      162.0000      247.8653   791071   53.00%
   1764  1043      227.9019   265      162.0000      247.8653   800544   53.00%
   1785  1064      219.7022   235      162.0000      247.8653   811100   53.00%
   1827  1090      237.9418   356      162.0000      247.8166   825941   52.97%
   1837  1100      225.2901   303      162.0000      247.8166   835777   52.97%
*  1844+ 1105                          164.0000      247.8166            51.11%
*  1844+ 1105                          166.0000      247.8166            49.29%
*  1844+ 1105                          168.0000      247.8166            47.51%
   1844  1107      224.1099   306      168.0000      247.8166   839355   47.51%
   1861  1124      221.4200   286      168.0000      247.8166   850608   47.51%
   1887  1150      218.4985   237      168.0000      247.8166   864404   47.51%
   1925  1188      211.4279   185      168.0000      247.8166   877669   47.51%
*  1944+ 1201                          170.0000      247.7413            45.73%
*  1944+ 1201                          174.0000      247.7413            42.38%
*  1944+ 1195                          182.0000      247.7413            36.12%
   1960  1213      222.4550   267      182.0000      247.7413   908389   36.12%
Elapsed time = 103.49 sec. (139707.79 ticks, tree = 1.53 MB, solutions = 15)
   2044  1277      229.1694   307      182.0000      247.6455   942252   36.07%
   2137  1355      234.4906   298      182.0000      247.6450   989399   36.07%
   2233  1437      237.8617   329      182.0000      247.6413  1035714   36.07%
   2261  1465      228.5026   315      182.0000      247.6413  1063846   36.07%
   2317  1517      222.3333   262      182.0000      247.6355  1100663   36.06%
   2370  1567      199.6458   203      182.0000      247.6355  1127539   36.06%
   2427  1614      212.7891   268      182.0000      247.6024  1159849   36.05%
   2495  1670      234.6458   323      182.0000      247.3140  1197998   35.89%
   2570  1744      212.0000   209      182.0000      247.3140  1237046   35.89%
   2644  1814      223.6896   300      182.0000      247.0895  1259769   35.76%
Elapsed time = 133.50 sec. (179178.16 ticks, tree = 2.26 MB, solutions = 15)
   2721  1882      236.3291   280      182.0000      247.0505  1302298   35.74%
Starting limited solution polishing.
   2790  1940      239.8802   353      182.0000      247.0243  1351740   35.73%
   2841  1987      229.2403   328      182.0000      246.9606  1401562   35.69%
   2857  2003      222.9689   258      182.0000      246.9606  1418195   35.69%
   2939  2073      229.3284   341      182.0000      246.8030  1469964   35.61%
Advanced basis not built.

GUB cover cuts applied:  113
Clique cuts applied:  128
Cover cuts applied:  14
Implied bound cuts applied:  59
Flow cuts applied:  5
Mixed integer rounding cuts applied:  114
Zero-half cuts applied:  63
Lift and project cuts applied:  11
Gomory fractional cuts applied:  5

Root node processing (before b&c):
  Real time             =    1.50 sec. (2033.67 ticks)
Sequential b&c:
  Real time             =  148.51 sec. (198776.54 ticks)
                          ------------
Total (root+branch&cut) =  150.00 sec. (200810.20 ticks)

Solution pool: 16 solutions saved.

MIP - Time limit exceeded, integer feasible:  Objective =  1.8200000000e+02
Current MIP best bound =  2.4680299038e+02 (gap = 64.803, 35.61%)
Solution time =  150.00 sec.  Iterations = 1474003  Nodes = 2944 (2077)
Deterministic time = 200810.21 ticks  (1338.71 ticks/sec)


Incumbent solution
Variable Name           Solution Value
F                           182.000000
y2                            1.000000
y3                            1.000000
y16                           1.000000
y17                           1.000000
y35                           1.000000
y48                           1.000000
y58                           1.000000
y64                           1.000000
y67                           1.000000
y88                           1.000000
y99                           1.000000
y116                          1.000000
y135                          1.000000
y149                          1.000000
y158                          1.000000
y187                          1.000000
y204                          1.000000
y205                          1.000000
y206                          1.000000
y215                          1.000000
y229                          1.000000
y246                          1.000000
y251                          1.000000
y264                          1.000000
y265                          1.000000
y267                          1.000000
y269                          1.000000
y270                          1.000000
y287                          1.000000
y288                          1.000000
x22x135x1                     1.000000
x22x206x1                     1.000000
x65x88x1                      1.000000
x114x64x1                     1.000000
x126x251x1                    1.000000
x169x187x1                    1.000000
x169x269x1                    1.000000
x176x246x1                    1.000000
x261x269x1                    1.000000
x4x3x2                        1.000000
x4x58x2                       1.000000
x97x215x2                     1.000000
x109x135x2                    1.000000
x109x204x2                    1.000000
x114x88x2                     1.000000
x176x246x2                    1.000000
x240x99x2                     1.000000
x240x187x2                    1.000000
x65x3x3                       1.000000
x84x204x3                     1.000000
x84x267x3                     1.000000
x97x206x3                     1.000000
x126x251x3                    1.000000
x165x58x3                     1.000000
x212x99x3                     1.000000
x212x267x3                    1.000000
x261x205x3                    1.000000
x204x2x3                      1.000000
x267x2x3                      1.000000
x2x0x3                        2.000000
x3x16x2                       1.000000
x3x264x3                      1.000000
x88x16x2                      1.000000
x16x17x2                      1.000000
x16x265x2                     1.000000
x17x0x2                       1.000000
x64x17x3                      1.000000
x17x0x3                       1.000000
x187x35x2                     1.000000
x35x0x2                       1.000000
x206x35x3                     1.000000
x35x0x3                       1.000000
x204x48x2                     1.000000
x246x48x2                     1.000000
x48x0x2                       2.000000
x58x215x2                     1.000000
x58x64x3                      1.000000
x64x116x1                     1.000000
x99x67x3                      1.000000
x205x67x3                     1.000000
x67x0x3                       2.000000
x88x288x1                     1.000000
x99x158x2                     1.000000
x205x116x1                    1.000000
x116x0x1                      2.000000
x135x288x1                    1.000000
x135x0x2                      1.000000
x187x149x1                    1.000000
x246x149x1                    1.000000
x149x0x1                      2.000000
x158x0x2                      1.000000
x264x158x3                    1.000000
x158x0x3                      1.000000
x251x205x1                    1.000000
x206x229x1                    1.000000
x215x287x2                    2.000000
x229x0x1                      1.000000
x267x229x3                    1.000000
x229x0x3                      1.000000
x251x264x3                    1.000000
x264x265x3                    1.000000
x265x0x2                      1.000000
x265x0x3                      1.000000
x269x270x1                    2.000000
x270x0x1                      2.000000
x287x0x2                      2.000000
x288x0x1                      2.000000
s4                            4.997497
s3                            6.635696
z4z3z2                        1.000000
s16                           7.789009
z4z16z2                       1.000000
s17                           9.490000
s30                           8.790000
z4z30z2                       1.000000
s35                           8.633251
s48                           8.720000
z4z48z2                       1.000000
s58                           6.338635
z4z58z2                       1.000000
s60                           9.220000
s80                           7.760000
s88                           6.722342
s99                           7.322042
s133                          7.680000
s135                          7.126388
s158                          9.270000
s187                          7.137718
s204                          7.049255
s215                          7.684346
z4z215z2                      1.000000
s224                          6.210000
s242                          8.160000
s246                          6.985874
s254                          6.660000
s265                          9.350000
s285                          9.310000
s287                          9.260000
z4z287z2                      1.000000
s22                           5.784902
s29                           6.340000
s55                           8.805658
z22z55z1                      1.000000
s64                           7.980750
s66                           7.580000
z22z66z1                      1.000000
s78                           8.349448
z22z78z1                      1.000000
s116                          9.230000
z22z116z1                     1.000000
s117                          9.390000
z22z117z1                     1.000000
s125                          9.370000
z22z135z1                     1.000000
s140                          8.210000
z22z140z1                     1.000000
s149                          8.611618
z22z149z1                     1.000000
s154                          8.230000
s161                          9.100000
z22z161z1                     1.000000
s177                          8.700000
z22z177z1                     1.000000
s189                          6.150000
s196                          9.240000
z22z196z1                     1.000000
s205                          7.953226
s206                          7.103891
z22z206z1                     1.000000
s209                          8.200000
s226                          7.620000
s229                          8.633348
s233                          7.640000
z22z233z1                     1.000000
s250                          8.830000
s251                          6.540000
s268                          9.280000
z22z268z1                     1.000000
s269                          7.740000
z22z269z1                     1.000000
s270                          9.320000
z22z270z1                     1.000000
s288                          9.020000
z22z288z1                     1.000000
s298                          9.400000
s65                           5.176667
s2                            8.641538
z65z2z3                       1.000000
z65z3z3                       1.000000
z65z55z1                      1.000000
s67                           9.174836
z65z67z3                      1.000000
z65z78z1                      1.000000
z65z88z1                      1.000000
z65z116z1                     1.000000
z65z117z1                     1.000000
z65z140z1                     1.000000
s148                          6.085343
z65z149z1                     1.000000
z65z161z1                     1.000000
z65z177z1                     1.000000
z65z196z1                     1.000000
s225                          9.310000
z65z225z3                     1.000000
z65z233z1                     1.000000
s264                          7.670000
z65z264z3                     1.000000
s267                          7.047591
z65z268z1                     1.000000
z65z269z1                     1.000000
z65z270z1                     1.000000
z65z288z1                     1.000000
s289                          7.670000
z65z289z3                     1.000000
s296                          6.120000
s84                           5.752356
z84z2z3                       1.000000
z84z67z3                      1.000000
z84z204z3                     1.000000
z84z225z3                     1.000000
z84z267z3                     1.000000
s97                           5.951600
z97z2z3                       1.000000
z97z30z2                      1.000000
z97z48z2                      1.000000
z97z67z3                      1.000000
z97z206z3                     1.000000
z97z215z2                     1.000000
z97z225z3                     1.000000
z97z287z2                     1.000000
s109                          5.679278
z109z16z2                     1.000000
z109z30z2                     1.000000
z109z48z2                     1.000000
z109z135z2                    1.000000
z109z204z2                    1.000000
z109z287z2                    1.000000
s114                          5.542014
z114z16z2                     1.000000
z114z30z2                     1.000000
z114z48z2                     1.000000
z114z55z1                     1.000000
z114z64z1                     1.000000
z114z78z1                     1.000000
z114z88z2                     1.000000
z114z116z1                    1.000000
z114z117z1                    1.000000
z114z140z1                    1.000000
z114z149z1                    1.000000
z114z161z1                    1.000000
z114z177z1                    1.000000
z114z196z1                    1.000000
z114z233z1                    1.000000
z114z268z1                    1.000000
z114z269z1                    1.000000
z114z270z1                    1.000000
z114z287z2                    1.000000
z114z288z1                    1.000000
s126                          5.240000
z126z2z3                      1.000000
z126z55z1                     1.000000
z126z66z1                     1.000000
z126z67z3                     1.000000
z126z78z1                     1.000000
z126z116z1                    1.000000
z126z117z1                    1.000000
z126z140z1                    1.000000
z126z149z1                    1.000000
z126z161z1                    1.000000
z126z177z1                    1.000000
z126z196z1                    1.000000
z126z225z3                    1.000000
z126z233z1                    1.000000
z126z251z1                    1.000000
z126z251z3                    1.000000
z126z264z3                    1.000000
z126z268z1                    1.000000
z126z269z1                    1.000000
z126z270z1                    1.000000
z126z288z1                    1.000000
z126z289z3                    1.000000
s165                          4.677942
z165z2z3                      1.000000
z165z58z3                     1.000000
z165z67z3                     1.000000
z165z225z3                    1.000000
z165z264z3                    1.000000
z165z289z3                    1.000000
s169                          5.934416
z169z55z1                     1.000000
z169z78z1                     1.000000
z169z116z1                    1.000000
z169z117z1                    1.000000
z169z140z1                    1.000000
z169z149z1                    1.000000
z169z161z1                    1.000000
z169z177z1                    1.000000
z169z187z1                    1.000000
z169z196z1                    1.000000
z169z233z1                    1.000000
z169z268z1                    1.000000
z169z269z1                    1.000000
z169z270z1                    1.000000
z169z288z1                    1.000000
s176                          5.218682
z176z16z2                     1.000000
z176z30z2                     1.000000
z176z48z2                     1.000000
z176z55z1                     1.000000
z176z78z1                     1.000000
z176z116z1                    1.000000
z176z117z1                    1.000000
z176z140z1                    1.000000
z176z149z1                    1.000000
z176z161z1                    1.000000
z176z177z1                    1.000000
z176z196z1                    1.000000
z176z233z1                    1.000000
z176z246z1                    1.000000
z176z246z2                    1.000000
z176z268z1                    1.000000
z176z269z1                    1.000000
z176z270z1                    1.000000
z176z287z2                    1.000000
z176z288z1                    1.000000
s212                          5.657436
z212z2z3                      1.000000
z212z67z3                     1.000000
z212z99z3                     1.000000
z212z225z3                    1.000000
z212z267z3                    1.000000
s240                          5.948035
z240z30z2                     1.000000
z240z48z2                     1.000000
z240z99z2                     1.000000
z240z187z2                    1.000000
z240z287z2                    1.000000
s261                          5.902507
z261z2z3                      1.000000
z261z55z1                     1.000000
z261z67z3                     1.000000
z261z78z1                     1.000000
z261z116z1                    1.000000
z261z117z1                    1.000000
z261z140z1                    1.000000
z261z149z1                    1.000000
z261z161z1                    1.000000
z261z177z1                    1.000000
z261z196z1                    1.000000
z261z205z3                    1.000000
z261z225z3                    1.000000
z261z233z1                    1.000000
z261z268z1                    1.000000
z261z269z1                    1.000000
z261z270z1                    1.000000
z261z288z1                    1.000000
z3z16z2                       1.000000
z3z264z3                      1.000000
z16z17z2                      1.000000
z16z265z2                     1.000000
z29z116z1                     1.000000
z29z117z1                     1.000000
z29z270z1                     1.000000
z58z64z3                      1.000000
z58z215z2                     1.000000
z64z17z3                      1.000000
z64z116z1                     1.000000
z66z116z1                     1.000000
z66z117z1                     1.000000
z66z270z1                     1.000000
z78z117z1                     1.000000
z88z16z2                      1.000000
z88z116z1                     1.000000
z88z117z1                     1.000000
z88z270z1                     1.000000
z88z288z1                     1.000000
z99z67z3                      1.000000
z99z158z2                     1.000000
z135z116z1                    1.000000
z135z117z1                    1.000000
z135z270z1                    1.000000
z135z288z1                    1.000000
z148z116z1                    1.000000
z148z117z1                    1.000000
z148z270z1                    1.000000
z187z35z2                     1.000000
z187z116z1                    1.000000
z187z117z1                    1.000000
z187z149z1                    1.000000
z187z270z1                    1.000000
z189z116z1                    1.000000
z189z117z1                    1.000000
z189z270z1                    1.000000
z204z2z3                      1.000000
z204z48z2                     1.000000
z205z67z3                     1.000000
z205z116z1                    1.000000
z206z35z3                     1.000000
z206z116z1                    1.000000
z206z117z1                    1.000000
z206z229z1                    1.000000
z206z270z1                    1.000000
z215z287z2                    1.000000
z224z48z2                     1.000000
z226z116z1                    1.000000
z226z117z1                    1.000000
z226z270z1                    1.000000
z246z48z2                     1.000000
z246z116z1                    1.000000
z246z117z1                    1.000000
z246z149z1                    1.000000
z246z270z1                    1.000000
z251z116z1                    1.000000
z251z117z1                    1.000000
z251z205z1                    1.000000
z251z264z3                    1.000000
z251z270z1                    1.000000
z264z158z3                    1.000000
z264z265z3                    1.000000
z267z2z3                      1.000000
z267z229z3                    1.000000
z269z55z1                     1.000000
z269z270z1                    1.000000
z296z116z1                    1.000000
z296z117z1                    1.000000
z296z270z1                    1.000000
All other variables in the range 1-3887 are 0.
